HUN,8,6,912
3,25,4,23,2,27,5,29,1,29,0,29
3,30,1,29,0,29,5,21,4,26,2,25
1,24,4,26,2,28,5,23,3,23,0,28
1,28,3,21,2,27,5,21,4,24,0,30
1,26,2,24,5,27,4,28,0,23,3,23
5,24,1,28,0,27,3,21,4,25,2,25
1,29,2,23,0,22,3,21,5,28,4,26
2,29,4,29,5,22,1,28,3,21,0,27
